c Random 3-CNF over 150 variables and 30 clauses
c Generated with `cnfgen`
c (C) 2012-2018 Massimo Lauria <lauria.massimo@gmail.com>
c https://massimolauria.github.io/cnfgen
c
c COMMAND LINE: cnfgen -o 3/3_0.2000000000_15.cnf randkcnf 3 150 30
c
p cnf 150 30
-2 -103 -125 0
-25 68 100 0
78 87 142 0
16 -94 141 0
-38 53 -113 0
19 120 122 0
-16 -63 88 0
-22 -48 -111 0
-2 52 -95 0
-6 40 105 0
128 132 139 0
21 86 -99 0
62 -85 -134 0
11 -97 -130 0
-50 -89 100 0
31 -56 -143 0
-46 -51 -137 0
73 -85 141 0
-33 -60 -87 0
-59 -106 115 0
-99 130 148 0
-67 85 -115 0
-35 -60 -126 0
24 121 129 0
8 18 -20 0
-20 -27 122 0
46 92 -101 0
1 -5 41 0
-84 86 124 0
-43 65 102 0
